solving instance mcnd nodes c49 3 6 cubic
presolving:
(round 1, fast)       518 del vars, 518 del conss, 0 add conss, 30 chg bounds, 0 chg sides, 0 chg coeffs, 0 upgd conss, 0 impls, 0 clqs
(round 2, exhaustive) 518 del vars, 1036 del conss, 0 add conss, 30 chg bounds, 0 chg sides, 0 chg coeffs, 0 upgd conss, 0 impls, 0 clqs
(round 3, exhaustive) 518 del vars, 1036 del conss, 0 add conss, 30 chg bounds, 0 chg sides, 0 chg coeffs, 51830 upgd conss, 0 impls, 0 clqs
   (1.6s) symmetry computation started: requiring (bin +, int +, cont +), (fixed: bin -, int -, cont -)
   (2.0s) no symmetry present (symcode time: 0.16)
presolving (4 rounds: 4 fast, 3 medium, 3 exhaustive):
 543 deleted vars, 1036 deleted constraints, 0 added constraints, 30 tightened bounds, 0 added holes, 0 changed sides, 0 changed coefficients
 51830 implications, 0 cliques
presolved problem has 52383 variables (523 bin, 0 int, 0 impl, 51860 cont) and 55408 constraints
  51830 constraints of type <varbound>
   3548 constraints of type <linear>
     30 constraints of type <nonlinear>
Presolving Time: 1.85

 time | node  | left  |LP iter|LP it/n|mem/heur|mdpt |vars |cons |rows |cuts |sepa|confs|strbr|  dualbound   | primalbound  |  gap   | compl. 
t77.3s|     1 |     0 | 31279 |     - |  trysol|   0 |  52k|  55k|  55k|   0 |  0 |   0 |   0 |-1.352675e+04 | 1.228318e+05 |    Inf | unknown
 2323s|     1 |     0 |218312 |     - |   420M |   0 |  52k|  55k|  55k|   0 |  0 |   0 |   0 |-5.408516e+03 | 1.228318e+05 |    Inf | unknown

SCIP Status        : solving was interrupted [time limit reached]
Solving Time (sec) : 3600.05
Solving Nodes      : 1
Primal Bound       : +1.22831801938884e+05 (1 solutions)
Dual Bound         : -5.40851570994790e+03
Gap                : infinite
primal_bound = 122831.80193888361, dual_bound = -5408.5157099478965, gap = 104.40318844515444, time = 3603.24
